20:53:34 | INFO    | Run started | run_id: SR_SV_RD_case3_P10_eps9999 | log file: C:\Users\Asus\Documents\GitHub\logistics-model2\internal-logistics-model2\results\SR_SV_RD\case3\SR_SV_RD_case3_P10_eps9999_2026_05_04_20_53.log
20:53:34 | INFO    | Products loaded | sheet=case3 | rows=10
20:53:34 | INFO    | Data loaded | |N|=26 |Nw|=25 |K|=1 |R|=1 |P|=10 | U=25
20:53:34 | INFO    | Big-M | time=491.0 precedence=480.0 wait=465.0 load_lb=20 load_ub=20
20:53:34 | INFO    | Set parameter Username
20:53:34 | INFO    | Set parameter LicenseID to value 2811848
20:53:34 | INFO    | Academic license - for non-commercial use only - expires 2027-04-22
20:53:34 | INFO    | Objective set | primary: min route_duration | tie-break weight on wait: 0.001
20:53:34 | INFO    | Constraint (3) added | total_wait <= 9999
20:53:34 | INFO    | Constraints (4)-(9) added | route structure
20:53:34 | INFO    | Constraints (10)-(12) added | product assignment
20:53:34 | INFO    | Constraints (13)-(15) added | route timing
20:53:34 | INFO    | Constraints (16) added | time consistency
20:53:34 | INFO    | Constraints (17)-(19) added | service times
20:53:34 | INFO    | Constraints (20)-(22) added | precedence, route closure, waiting
20:53:34 | INFO    | Constraints (23)-(27) added | load propagation
20:53:34 | INFO    | Constraints (28)-(32) added | MTZ and route ordering
20:53:34 | INFO    | Set parameter TimeLimit to value 600
20:53:34 | INFO    | Set parameter MIPGap to value 0.01
20:53:34 | INFO    | Set parameter Presolve to value 2
20:53:34 | INFO    | Set parameter LogFile to value "C:\Users\Asus\Documents\GitHub\logistics-model2\internal-logistics-model2\results\SR_SV_RD\case3\result_SR_SV_RD_case3_P10_eps9999_2026_05_04_20_53.log"
20:53:34 | INFO    | Solver configured | TimeLimit=600s | MIPGap=0.01 | gurobi_log=C:\Users\Asus\Documents\GitHub\logistics-model2\internal-logistics-model2\results\SR_SV_RD\case3\result_SR_SV_RD_case3_P10_eps9999_2026_05_04_20_53.log
20:53:34 | INFO    | Optimization starting...
20:53:34 | INFO    | Gurobi Optimizer version 12.0.0 build v12.0.0rc1 (win64 - Windows 10.0 (19045.2))
20:53:34 | INFO    | 
20:53:34 | INFO    | CPU model: 12th Gen Intel(R) Core(TM) i7-12650H, instruction set [SSE2|AVX|AVX2]
20:53:34 | INFO    | Thread count: 10 physical cores, 16 logical processors, using up to 16 threads
20:53:34 | INFO    | 
20:53:34 | INFO    | Non-default parameters:
20:53:34 | INFO    | TimeLimit  600
20:53:34 | INFO    | MIPGap  0.01
20:53:34 | INFO    | Presolve  2
20:53:34 | INFO    | 
20:53:34 | INFO    | Optimize a model with 2752 rows, 823 columns and 13949 nonzeros
20:53:34 | INFO    | Model fingerprint: 0xca0381cb
20:53:34 | INFO    | Variable types: 138 continuous, 685 integer (660 binary)
20:53:34 | INFO    | Coefficient statistics:
20:53:34 | INFO    |   Matrix range     [1e+00, 5e+02]
20:53:34 | INFO    |   Objective range  [1e-03, 1e+00]
20:53:34 | INFO    |   Bounds range     [1e+00, 3e+01]
20:53:34 | INFO    |   RHS range        [1e+00, 1e+04]
20:53:34 | INFO    | Presolve removed 2514 rows and 742 columns
20:53:34 | INFO    | Presolve time: 0.01s
20:53:34 | INFO    | Presolved: 238 rows, 81 columns, 881 nonzeros
20:53:34 | INFO    | Variable types: 28 continuous, 53 integer (46 binary)
20:53:34 | INFO    | Found heuristic solution: objective 118.4730000
20:53:34 | INFO    | Found heuristic solution: objective 111.4420000
20:53:34 | INFO    | Root relaxation presolve removed 22 rows and 1 columns
20:53:34 | INFO    | Root relaxation presolved: 216 rows, 83 columns, 828 nonzeros
20:53:34 | INFO    | 
20:53:34 | INFO    | 
20:53:34 | INFO    | Root relaxation: objective 2.180000e-01, 39 iterations, 0.00 seconds (0.00 work units)
20:53:34 | INFO    | 
20:53:34 | INFO    |     Nodes    |    Current Node    |     Objective Bounds      |     Work
20:53:34 | INFO    |  Expl Unexpl |  Obj  Depth IntInf | Incumbent    BestBd   Gap | It/Node Time
20:53:34 | INFO    | 
20:53:34 | INFO    |      0     0    0.21800    0   15  111.44200    0.21800   100%     -    0s
20:53:34 | INFO    | H    0     0                     108.4420000    0.21800   100%     -    0s
20:53:34 | INFO    |      0     0    0.22550    0   24  108.44200    0.22550   100%     -    0s
20:53:34 | INFO    |      0     0    0.22550    0   24  108.44200    0.22550   100%     -    0s
20:53:34 | INFO    | H    0     0                     107.4180000   53.30500  50.4%     -    0s
20:53:34 | INFO    |      0     0   53.30500    0   25  107.41800   53.30500  50.4%     -    0s
20:53:34 | INFO    |      0     0   53.34100    0   23  107.41800   53.34100  50.3%     -    0s
20:53:34 | INFO    | H    0     0                     106.4610000   59.23900  44.4%     -    0s
20:53:34 | INFO    | H    0     0                     106.4260000   59.25400  44.3%     -    0s
20:53:34 | INFO    |      0     0   59.25400    0   21  106.42600   59.25400  44.3%     -    0s
20:53:34 | INFO    |      0     0   65.21800    0   24  106.42600   65.21800  38.7%     -    0s
20:53:34 | INFO    |      0     0   65.21800    0   27  106.42600   65.21800  38.7%     -    0s
20:53:34 | INFO    |      0     0   65.21800    0   29  106.42600   65.21800  38.7%     -    0s
20:53:34 | INFO    | H    0     0                     104.4430000   65.21800  37.6%     -    0s
20:53:34 | INFO    |      0     0   65.25200    0   24  104.44300   65.25200  37.5%     -    0s
20:53:34 | INFO    |      0     0   69.21800    0   27  104.44300   69.21800  33.7%     -    0s
20:53:34 | INFO    |      0     0   69.22500    0   26  104.44300   69.22500  33.7%     -    0s
20:53:34 | INFO    |      0     0   69.22700    0   26  104.44300   69.22700  33.7%     -    0s
20:53:34 | INFO    |      0     0   70.22300    0   22  104.44300   70.22300  32.8%     -    0s
20:53:34 | INFO    |      0     0   70.22300    0   22  104.44300   70.22300  32.8%     -    0s
20:53:34 | INFO    | H    0     0                     104.4280000   70.22300  32.8%     -    0s
20:53:34 | INFO    |      0     2   70.22300    0   22  104.42800   70.22300  32.8%     -    0s
20:53:34 | INFO    | H   27    26                     104.4270000   70.22300  32.8%  17.1    0s
20:53:34 | INFO    | H   45    26                     103.4270000   70.22300  32.1%  14.4    0s
20:53:34 | INFO    | H  119    43                     102.4040000   70.22300  31.4%  12.9    0s
20:53:34 | INFO    | 
20:53:34 | INFO    | Cutting planes:
20:53:34 | INFO    |   Learned: 1
20:53:34 | INFO    |   Implied bound: 16
20:53:34 | INFO    |   MIR: 52
20:53:34 | INFO    |   Inf proof: 1
20:53:34 | INFO    |   Zero half: 1
20:53:34 | INFO    |   RLT: 1
20:53:34 | INFO    |   Relax-and-lift: 7
20:53:34 | INFO    | 
20:53:34 | INFO    | Explored 307 nodes (3256 simplex iterations) in 0.10 seconds (0.07 work units)
20:53:34 | INFO    | Thread count was 16 (of 16 available processors)
20:53:34 | INFO    | 
20:53:34 | INFO    | Solution count 10: 102.404 103.427 104.427 ... 111.442
20:53:34 | INFO    | 
20:53:34 | INFO    | Optimal solution found (tolerance 1.00e-02)
20:53:34 | INFO    | Best objective 1.024040000000e+02, best bound 1.024040000000e+02, gap 0.0000%
20:53:34 | INFO    | Solution found | route_duration=102.00 | total_wait=404.00
20:53:34 | INFO    | Objective=102.40 | runtime=0.10s | MIP Gap=0.00%
20:53:34 | INFO    | Generating Excel output | C:\Users\Asus\Documents\GitHub\logistics-model2\internal-logistics-model2\results\SR_SV_RD\case3\result_SR_SV_RD_case3_P10_eps9999_2026_05_04_20_53.xlsx
20:53:34 | INFO    | Excel output written | 12 sheets | C:\Users\Asus\Documents\GitHub\logistics-model2\internal-logistics-model2\results\SR_SV_RD\case3\result_SR_SV_RD_case3_P10_eps9999_2026_05_04_20_53.xlsx
20:53:34 | INFO    | Master Pareto updated | 16 total rows | C:\Users\Asus\Documents\GitHub\logistics-model2\internal-logistics-model2\results\master_pareto.xlsx
20:53:34 | INFO    | Run complete | run_id=SR_SV_RD_case3_P10_eps9999
